units          lj
dimension      3
boundary       p p p
atom_style     molecular


neighbor       0.6 bin
neigh_modify   delay 0 every 1 

variable temp equal 1e-2

pair_style hybrid/overlay lj/cut 1.1225 
pair_modify shift yes 

angle_style    rbc
bond_style     harmonic
dihedral_style bend

#Read data

read_data Input.data

group cell1 molecule 1
group cell2 molecule 2
group cell3 molecule 3
group cell4 molecule 4
group cell5 molecule 5
group cell6 molecule 6
group cell7 molecule 7
group cell8 molecule 8
group cell9 molecule 9
group cell10 molecule 10
group cell11 molecule 11
group cell12 molecule 12

neigh_modify exclude molecule all

# Cell-Cell interactions (C-C)
pair_coeff 1 1 lj/cut 6.57e-4 1.0 1.1225

# Pol-Cell interactions (P-C)
pair_coeff 1 2 lj/cut 6.57e-4 1.0 1.1225
pair_coeff 1 3 lj/cut 3.28e-2 1.0 2.5

# Pol-pol interactions (P-P)
pair_coeff 2 2 lj/cut 6.57e-4 1.0 1.1225
pair_coeff 2 3 lj/cut 6.57e-4 1.0 1.1225
pair_coeff 3 3 lj/cut 3.28e-2 1.0 2.5

mass 1 1
mass 2 1
mass 3 1

velocity all create ${temp} 4928459 rot yes dist gaussian

timestep     0.01

fix 1 all nve

fix 2 all langevin ${temp} ${temp} 100 4827989

# Use fix rigid to ensure the cells will be stable under both repulsive and attractive forces induced by polymer beads
fix fxrigid1 cell1 rigid molecule langevin ${temp} ${temp} 100 4827989
fix fxrigid2 cell2 rigid molecule langevin ${temp} ${temp} 100 4827989
fix fxrigid3 cell3 rigid molecule langevin ${temp} ${temp} 100 4827989
fix fxrigid4 cell4 rigid molecule langevin ${temp} ${temp} 100 4827989
fix fxrigid5 cell5 rigid molecule langevin ${temp} ${temp} 100 4827989
fix fxrigid6 cell6 rigid molecule langevin ${temp} ${temp} 100 4827989
fix fxrigid7 cell7 rigid molecule langevin ${temp} ${temp} 100 4827989
fix fxrigid8 cell8 rigid molecule langevin ${temp} ${temp} 100 4827989
fix fxrigid9 cell9 rigid molecule langevin ${temp} ${temp} 100 4827989
fix fxrigid10 cell10 rigid molecule langevin ${temp} ${temp} 100 4827989
fix fxrigid11 cell11 rigid molecule langevin ${temp} ${temp} 100 4827989
fix fxrigid12 cell12 rigid molecule langevin ${temp} ${temp} 100 4827989

dump		1 all custom 1000000 bac.*.lammpstrj id mol type x y z vx vy vz
dump_modify 1 sort id

thermo_style custom step temp epair ebond eangle edihed emol etotal vol
thermo 10000


run	       100000000

write_data bac_100000.data
