units          lj
dimension      3
boundary       p p p
atom_style     molecular


neighbor       0.6 bin
neigh_modify   delay 0 every 1

variable temp equal 1e-2

pair_style hybrid/overlay lj/cut 1.1225
pair_modify shift yes 

angle_style    rbc
bond_style     harmonic
dihedral_style bend

#Read data

read_data Input.data

neigh_modify exclude molecule all

# Cell-Cell interactions (C-C), 1kBT = 6.57e-4
pair_coeff 1 1 lj/cut 6.57e-5 1.0 1.1225 #0.1kBT


# Pol-Cell interactions (P-C)
pair_coeff 1 2 lj/cut 6.57e-5 1.0 1.1225


# Pol-pol interactions (P-P)
pair_coeff 2 2 lj/cut 6.57e-5 1.0 1.1225


mass 1 1
mass 2 1


velocity all create ${temp} 4928459 rot yes dist gaussian

timestep     0.01
 

fix 1 all nve

fix 2 all langevin ${temp} ${temp} 100 4827989


dump		1 all custom 1000000 bac.*.lammpstrj id mol type x y z vx vy vz
dump_modify 1 sort id

thermo_style custom step temp epair ebond eangle edihed emol etotal vol
thermo 10000


run	       100000000

write_data bac_100000.data
